(set-logic QF_S)
(declare-fun var0 () String)
(declare-fun var1 () String)
(declare-fun var2 () String)
(declare-fun var3 () String)
(declare-fun var4 () String)
(declare-fun var5 () String)
(declare-fun var6 () String)
(declare-fun var7 () String)
(declare-fun var8 () String)
(declare-fun var9 () String)
(declare-fun var10 () String)
(declare-fun var11 () String)
(declare-fun var12 () String)
(declare-fun var13 () String)
(declare-fun var14 () String)
(declare-fun var15 () String)
(declare-fun var16 () String)
(declare-fun var17 () String)
(declare-fun var18 () String)
(declare-fun var19 () String)
(declare-fun var20 () String)
(declare-fun var21 () String)
(declare-fun var22 () String)
(declare-fun var23 () String)
(declare-fun var24 () String)
(declare-fun var25 () String)
(declare-fun var26 () String)
(declare-fun var27 () String)
(declare-fun var28 () String)
(declare-fun var29 () String)
(declare-fun var30 () String)
(declare-fun var31 () String)
(declare-fun var32 () String)
(declare-fun var33 () String)
(declare-fun var34 () String)
(declare-fun var35 () String)
(declare-fun var36 () String)
(declare-fun var37 () String)
(declare-fun var38 () String)
(declare-fun var39 () String)
(declare-fun var40 () String)
(declare-fun var41 () String)
(declare-fun var42 () String)
(declare-fun var43 () String)
(declare-fun var44 () String)
(declare-fun var45 () String)
(declare-fun var46 () String)
(declare-fun var47 () String)
(declare-fun var48 () String)
(declare-fun var49 () String)
(declare-fun var50 () String)
(declare-fun var51 () String)
(declare-fun var52 () String)
(declare-fun var53 () String)
(declare-fun var54 () String)
(declare-fun var55 () String)
(declare-fun var56 () String)
(declare-fun var57 () String)
(declare-fun var58 () String)
(declare-fun var59 () String)
(declare-fun var60 () String)
(assert (= var0 (Concat var1 var2)))
(assert (= var2 (Concat var3 var4)))
(assert (= var4 (Concat var5 var6)))
(assert (= var6 (Concat var7 var8)))
(assert (= var8 (Concat var9 var10)))
(assert (= var10 (Concat var11 var12)))
(assert (= var12 (Concat var13 var14)))
(assert (= var14 (Concat var15 var16)))
(assert (= var16 (Concat var17 var18)))
(assert (= var18 (Concat var19 var20)))
(assert (= var20 (Concat var21 var22)))
(assert (= var22 (Concat var23 var24)))
(assert (= var24 (Concat var25 var26)))
(assert (= var26 (Concat var27 var28)))
(assert (= var28 (Concat var29 var30)))
(assert (= var30 (Concat var31 var32)))
(assert (= var32 (Concat var33 var34)))
(assert (= var34 (Concat var35 var36)))
(assert (= var36 (Concat var37 var38)))
(assert (= var38 (Concat var39 var40)))
(assert (= var40 (Concat var41 var42)))
(assert (= var42 (Concat var43 var44)))
(assert (= var44 (Concat var45 var46)))
(assert (= var46 (Concat var47 var48)))
(assert (= var48 (Concat var49 var50)))
(assert (= var50 (Concat var51 var52)))
(assert (= var52 (Concat var53 var54)))
(assert (= var54 (Concat var55 var56)))
(assert (= var56 (Concat var57 var58)))
(assert (= var58 (Concat var59 var60)))
(assert (= var0 "solution"))
(assert (= "A" (CharAt var39 688)))
(assert (= "1" (CharAt var21 688)))
(assert (= "L" (CharAt var60 602)))
(assert (= "[" (CharAt var43 605)))
(assert (= ":" (CharAt var44 187)))
(assert (= "I" (CharAt var20 804)))
(assert (= "A" (CharAt var51 52)))
(assert (= "P" (CharAt var35 78)))
(assert (= "!" (CharAt var24 24)))
(assert (= "n" (CharAt var57 972)))
(assert (= "e" (CharAt var58 866)))
(assert (= "2" (CharAt var60 369)))
(assert (= "r" (CharAt var8 594)))
(assert (= "u" (CharAt var0 653)))
(assert (= "/" (CharAt var54 757)))
(assert (= "j" (CharAt var10 670)))
(assert (= "O" (CharAt var29 870)))
(assert (= "T" (CharAt var16 901)))
(assert (= "L" (CharAt var48 599)))
(assert (= "h" (CharAt var41 602)))
(assert (= "v" (CharAt var57 831)))
(assert (= "n" (CharAt var49 310)))
(assert (= "%" (CharAt var43 417)))
(assert (= "1" (CharAt var45 395)))
(assert (= "<" (CharAt var40 696)))
(assert (= "E" (CharAt var48 21)))
(assert (= "`" (CharAt var3 52)))
(assert (= "M" (CharAt var12 347)))
(assert (= "<" (CharAt var11 785)))
(assert (= "R" (CharAt var55 555)))
(assert (= "r" (CharAt var51 266)))
(assert (= "," (CharAt var16 236)))
(assert (= "Q" (CharAt var13 662)))
(assert (= "?" (CharAt var55 994)))
(assert (= "7" (CharAt var59 180)))
(assert (= "e" (CharAt var24 226)))
(assert (= "p" (CharAt var43 783)))
(assert (= "`" (CharAt var13 383)))
(assert (= "o" (CharAt var3 189)))
(assert (= "+" (CharAt var33 554)))
(assert (= "'" (CharAt var33 371)))
(assert (= "^" (CharAt var29 372)))
(assert (= "'" (CharAt var5 593)))
(assert (= "]" (CharAt var41 214)))
(assert (= "J" (CharAt var10 659)))
(assert (= "P" (CharAt var29 16)))
(assert (= "@" (CharAt var26 19)))
(assert (= "x" (CharAt var50 47)))
(assert (= "}" (CharAt var45 96)))
(assert (= "`" (CharAt var6 613)))
(assert (= "r" (CharAt var35 290)))
(assert (= "\"" (CharAt var55 151)))
(assert (= "@" (CharAt var22 427)))
(assert (= "_" (CharAt var23 454)))
(assert (= "l" (CharAt var45 81)))
(assert (= "=" (CharAt var2 687)))
(assert (= "," (CharAt var37 432)))
(assert (= "5" (CharAt var58 108)))
(assert (= "|" (CharAt var13 496)))
(assert (= "9" (CharAt var9 732)))
(assert (= "p" (CharAt var34 731)))
(assert (= "*" (CharAt var14 227)))
(assert (= "B" (CharAt var40 14)))
(assert (= "l" (CharAt var0 239)))
(assert (= "j" (CharAt var19 761)))
(assert (= "T" (CharAt var37 507)))
(assert (= "s" (CharAt var46 670)))
(assert (= "D" (CharAt var30 959)))
(assert (= "i" (CharAt var36 346)))
(assert (= "n" (CharAt var40 38)))
(assert (= "E" (CharAt var26 152)))
(assert (= "R" (CharAt var58 14)))
(assert (= "l" (CharAt var37 57)))
(assert (= "m" (CharAt var16 266)))
(assert (= "U" (CharAt var8 631)))
(assert (= "~" (CharAt var44 840)))
(assert (= "/" (CharAt var6 173)))
(assert (= "3" (CharAt var17 600)))
(assert (= "d" (CharAt var10 261)))
(assert (= "\\" (CharAt var37 554)))
(assert (= "?" (CharAt var3 778)))
(assert (= "a" (CharAt var11 915)))
(assert (= "'" (CharAt var40 289)))
(assert (= ":" (CharAt var6 722)))
(assert (= "\"" (CharAt var60 138)))
(assert (= "U" (CharAt var58 540)))
(assert (= "!" (CharAt var35 970)))
(assert (= "c" (CharAt var13 211)))
(assert (= "R" (CharAt var49 415)))
(assert (= "N" (CharAt var47 657)))
(assert (= "\"" (CharAt var23 763)))
(assert (= "\"" (CharAt var58 852)))
(assert (= ";" (CharAt var52 588)))
(assert (= "/" (CharAt var15 159)))
(assert (= "." (CharAt var2 564)))
(assert (= "(" (CharAt var53 574)))
(assert (= "N" (CharAt var51 736)))
(assert (= "N" (CharAt var11 563)))
(assert (= "$" (CharAt var33 606)))
(assert (= "c" (CharAt var22 528)))
(assert (= "7" (CharAt var40 593)))
(assert (= ">" (CharAt var39 200)))
(assert (= "=" (CharAt var5 940)))
(assert (= "V" (CharAt var20 407)))
(assert (= "d" (CharAt var5 176)))
(assert (= "\"" (CharAt var55 297)))
(assert (= "n" (CharAt var5 255)))
(assert (= "h" (CharAt var23 20)))
(assert (= "[" (CharAt var14 816)))
(assert (= ">" (CharAt var59 112)))
(assert (= "7" (CharAt var4 220)))
(assert (= "t" (CharAt var46 987)))
(assert (= "G" (CharAt var49 72)))
(assert (= "c" (CharAt var51 277)))
(assert (= "i" (CharAt var45 833)))
(assert (= "1" (CharAt var34 236)))
(assert (= "5" (CharAt var46 15)))
(assert (= "7" (CharAt var14 438)))
(assert (= "&" (CharAt var47 494)))
(assert (= "@" (CharAt var54 353)))
(assert (= "Z" (CharAt var14 668)))
(assert (= "s" (CharAt var53 208)))
(assert (= "0" (CharAt var51 707)))
(assert (= "," (CharAt var14 653)))
(assert (= "." (CharAt var60 280)))
(assert (= "!" (CharAt var39 906)))
(assert (= "8" (CharAt var26 250)))
(assert (= "G" (CharAt var41 513)))
(assert (= "v" (CharAt var12 671)))
(assert (= "L" (CharAt var35 389)))
(assert (= ":" (CharAt var8 328)))
(assert (= "&" (CharAt var50 413)))
(assert (= "6" (CharAt var24 490)))
(assert (= "t" (CharAt var21 357)))
(assert (= "w" (CharAt var30 599)))
(assert (= "(" (CharAt var46 677)))
(assert (= "]" (CharAt var4 364)))
(assert (= "6" (CharAt var5 13)))
(assert (= "X" (CharAt var56 555)))
(assert (= "i" (CharAt var45 690)))
(assert (= "p" (CharAt var50 214)))
(assert (= "Z" (CharAt var22 201)))
(assert (= "t" (CharAt var3 844)))
(assert (= "?" (CharAt var35 303)))
(assert (= "f" (CharAt var42 276)))
(assert (= "B" (CharAt var1 172)))
(assert (= ")" (CharAt var1 704)))
(assert (= "$" (CharAt var60 194)))
(assert (= "7" (CharAt var6 24)))
(assert (= "2" (CharAt var44 608)))
(assert (= "_" (CharAt var59 959)))
(assert (= "w" (CharAt var52 96)))
(assert (= "0" (CharAt var28 994)))
(assert (= "A" (CharAt var10 692)))
(assert (= "<" (CharAt var44 799)))
(assert (= "z" (CharAt var51 407)))
(assert (= "|" (CharAt var36 187)))
(assert (= "\"" (CharAt var60 941)))
(assert (= "\"" (CharAt var31 865)))
(assert (= "q" (CharAt var42 666)))
(assert (= "f" (CharAt var47 319)))
(assert (= "}" (CharAt var15 432)))
(assert (= "`" (CharAt var51 663)))
(assert (= ";" (CharAt var13 325)))
(assert (= "E" (CharAt var36 477)))
(assert (= "b" (CharAt var41 712)))
(assert (= "@" (CharAt var8 75)))
(assert (= "p" (CharAt var25 80)))
(assert (= "m" (CharAt var3 180)))
(assert (= "v" (CharAt var12 315)))
(assert (= "c" (CharAt var16 25)))
(assert (= "t" (CharAt var33 999)))
(assert (= "Y" (CharAt var25 606)))
(assert (= "%" (CharAt var39 597)))
(assert (= "H" (CharAt var49 558)))
(assert (= "`" (CharAt var39 687)))
(assert (= "|" (CharAt var26 170)))
(assert (= "X" (CharAt var58 328)))
(assert (= "c" (CharAt var1 98)))
(assert (= "'" (CharAt var20 191)))
(assert (= ">" (CharAt var16 431)))
(assert (= "z" (CharAt var13 817)))
(assert (= "}" (CharAt var39 554)))
(assert (= "u" (CharAt var24 637)))
(assert (= "G" (CharAt var47 772)))
(assert (= "~" (CharAt var25 152)))
(assert (= "O" (CharAt var33 635)))
(assert (= ">" (CharAt var32 81)))
(assert (= "a" (CharAt var42 157)))
(assert (= "U" (CharAt var57 94)))
(assert (= "1" (CharAt var14 734)))
(assert (= "B" (CharAt var14 654)))
(assert (= "|" (CharAt var55 547)))
(assert (= "`" (CharAt var45 962)))
(assert (= "w" (CharAt var52 697)))
(assert (= "G" (CharAt var27 512)))
(assert (= "n" (CharAt var14 358)))
(assert (= "M" (CharAt var49 832)))
(assert (= "e" (CharAt var27 356)))
(assert (= "|" (CharAt var21 524)))
(assert (= "%" (CharAt var57 876)))
(assert (= "S" (CharAt var22 736)))
(assert (= "6" (CharAt var0 666)))
(assert (= "|" (CharAt var0 377)))
(assert (= ">" (CharAt var8 676)))
(assert (= "U" (CharAt var10 754)))
(assert (= "#" (CharAt var22 173)))
(assert (= "n" (CharAt var24 2)))
(assert (= "s" (CharAt var38 980)))
(assert (= "[" (CharAt var18 933)))
(assert (= "%" (CharAt var42 193)))
(assert (= "t" (CharAt var51 586)))
(assert (= "P" (CharAt var4 730)))
(assert (= "E" (CharAt var21 156)))
(assert (= "<" (CharAt var14 273)))
(assert (= "i" (CharAt var28 229)))
(assert (= "x" (CharAt var46 519)))
(assert (= ">" (CharAt var41 307)))
(assert (= "}" (CharAt var57 73)))
(assert (= "*" (CharAt var37 826)))
(assert (= "|" (CharAt var48 406)))
(assert (= "h" (CharAt var41 550)))
(assert (= "9" (CharAt var16 391)))
(assert (= ")" (CharAt var32 207)))
(assert (= "-" (CharAt var1 296)))
(assert (= "6" (CharAt var56 390)))
(assert (= "J" (CharAt var26 539)))
(assert (= "|" (CharAt var60 35)))
(assert (= "u" (CharAt var29 793)))
(assert (= "+" (CharAt var44 686)))
(assert (= "P" (CharAt var30 347)))
(assert (= "?" (CharAt var21 977)))
(assert (= "h" (CharAt var51 352)))
(assert (= "j" (CharAt var33 104)))
(assert (= "}" (CharAt var4 835)))
(assert (= "3" (CharAt var45 524)))
(assert (= "c" (CharAt var29 930)))
(assert (= "p" (CharAt var29 484)))
(assert (= "/" (CharAt var23 130)))
(assert (= "m" (CharAt var22 657)))
(assert (= "b" (CharAt var27 406)))
(assert (= ")" (CharAt var22 431)))
(assert (= "H" (CharAt var33 405)))
(assert (= "I" (CharAt var37 338)))
(assert (= "G" (CharAt var0 438)))
(assert (= "?" (CharAt var13 397)))
(assert (= "+" (CharAt var46 841)))
(assert (= "8" (CharAt var45 882)))
(assert (= "T" (CharAt var30 604)))
(assert (= "(" (CharAt var49 220)))
(assert (= "p" (CharAt var0 441)))
(assert (= "2" (CharAt var21 406)))
(assert (= "0" (CharAt var23 122)))
(assert (= "G" (CharAt var45 877)))
(assert (= "n" (CharAt var36 985)))
(assert (= "l" (CharAt var7 667)))
(assert (= "/" (CharAt var7 143)))
(assert (= "w" (CharAt var28 238)))
(assert (= "D" (CharAt var59 124)))
(assert (= "." (CharAt var6 159)))
(assert (= "|" (CharAt var42 921)))
(assert (= "x" (CharAt var18 188)))
(assert (= "a" (CharAt var43 928)))
(assert (= ";" (CharAt var24 232)))
(assert (= "B" (CharAt var11 69)))
(assert (= "X" (CharAt var17 620)))
(assert (= "7" (CharAt var14 364)))
(assert (= "?" (CharAt var38 656)))
(assert (= "Z" (CharAt var16 361)))
(assert (= "v" (CharAt var7 345)))
(assert (= "P" (CharAt var49 4)))
(assert (= "{" (CharAt var3 168)))
(assert (= "R" (CharAt var16 463)))
(assert (= "#" (CharAt var32 92)))
(assert (= "]" (CharAt var42 715)))
(assert (= "]" (CharAt var26 760)))
(assert (= "\"" (CharAt var34 422)))
(assert (= "M" (CharAt var30 498)))
(assert (= "~" (CharAt var5 448)))
(assert (= "i" (CharAt var22 455)))
(assert (= "(" (CharAt var59 894)))
(assert (= "l" (CharAt var54 472)))
(assert (= "U" (CharAt var51 561)))
(assert (= "S" (CharAt var12 690)))
(assert (= "<" (CharAt var57 304)))
(assert (= "Y" (CharAt var2 335)))
(assert (= "7" (CharAt var42 972)))
(assert (= "6" (CharAt var51 947)))
(assert (= "i" (CharAt var27 9)))
(assert (= "V" (CharAt var55 732)))
(assert (= "0" (CharAt var55 573)))
(assert (= ">" (CharAt var2 906)))
(assert (= ";" (CharAt var33 403)))
(assert (= "l" (CharAt var35 452)))
(assert (= "/" (CharAt var30 733)))
(assert (= "*" (CharAt var42 880)))
(assert (= "+" (CharAt var6 310)))
(assert (= "k" (CharAt var27 811)))
(assert (= "9" (CharAt var53 679)))
(assert (= "#" (CharAt var25 765)))
(assert (= "B" (CharAt var59 81)))
(assert (= "P" (CharAt var49 971)))
(assert (= "_" (CharAt var1 786)))
(assert (= "Q" (CharAt var57 295)))
(assert (= "I" (CharAt var33 953)))
(assert (= "w" (CharAt var36 280)))
(assert (= "g" (CharAt var53 943)))
(assert (= "C" (CharAt var6 823)))
(assert (= ">" (CharAt var7 826)))
(assert (= "e" (CharAt var60 210)))
(assert (= "u" (CharAt var39 188)))
(assert (= "K" (CharAt var2 440)))
(assert (= "j" (CharAt var38 729)))
(assert (= "E" (CharAt var13 941)))
(assert (= "h" (CharAt var52 39)))
(assert (= "i" (CharAt var4 857)))
(assert (= "|" (CharAt var19 857)))
(assert (= "x" (CharAt var39 806)))
(assert (= "c" (CharAt var23 499)))
(assert (= "V" (CharAt var49 851)))
(assert (= "U" (CharAt var54 471)))
(assert (= "1" (CharAt var60 530)))
(assert (= "=" (CharAt var20 288)))
(assert (= "G" (CharAt var5 100)))
(assert (= "!" (CharAt var26 189)))
(assert (= "m" (CharAt var14 546)))
(assert (= "#" (CharAt var55 909)))
(assert (= "f" (CharAt var46 61)))
(assert (= "v" (CharAt var40 447)))
(assert (= "!" (CharAt var8 689)))
(assert (= "D" (CharAt var23 161)))
(assert (= "R" (CharAt var14 122)))
(assert (= "^" (CharAt var59 637)))
(assert (= "&" (CharAt var33 620)))
(assert (= "?" (CharAt var38 299)))
(assert (= "x" (CharAt var30 420)))
(assert (= "+" (CharAt var47 623)))
(assert (= "Y" (CharAt var31 88)))
(assert (= "0" (CharAt var9 675)))
(assert (= "O" (CharAt var46 550)))
(assert (= "1" (CharAt var43 461)))
(assert (= "(" (CharAt var0 904)))
(assert (= "h" (CharAt var6 703)))
(assert (= "1" (CharAt var30 280)))
(assert (= "X" (CharAt var8 197)))
(assert (= "[" (CharAt var23 800)))
(assert (= "^" (CharAt var52 391)))
(assert (= "Y" (CharAt var40 879)))
(assert (= "8" (CharAt var53 629)))
(assert (= "}" (CharAt var21 730)))
(assert (= "a" (CharAt var54 951)))
(assert (= "u" (CharAt var40 693)))
(assert (= "a" (CharAt var60 59)))
(assert (= "Y" (CharAt var32 442)))
(assert (= "`" (CharAt var53 965)))
(assert (= "?" (CharAt var18 581)))
(assert (= "Y" (CharAt var35 504)))
(assert (= "f" (CharAt var16 3)))
(assert (= "z" (CharAt var51 205)))
(assert (= "j" (CharAt var26 509)))
(assert (= "t" (CharAt var37 194)))
(assert (= "8" (CharAt var25 442)))
(assert (= "M" (CharAt var11 355)))
(assert (= "`" (CharAt var26 470)))
(assert (= "5" (CharAt var37 972)))
(assert (= "d" (CharAt var37 169)))
(assert (= "+" (CharAt var26 843)))
(assert (= "=" (CharAt var32 91)))
(assert (= "." (CharAt var60 206)))
(assert (= "+" (CharAt var5 3)))
(assert (= "0" (CharAt var37 189)))
(assert (= "U" (CharAt var1 18)))
(assert (= "c" (CharAt var30 243)))
(assert (= "|" (CharAt var46 839)))
(assert (= "w" (CharAt var52 156)))
(assert (= "{" (CharAt var37 174)))
(assert (= "J" (CharAt var12 529)))
(assert (= "#" (CharAt var22 998)))
(assert (= "7" (CharAt var4 519)))
(assert (= "p" (CharAt var53 384)))
(assert (= "8" (CharAt var38 184)))
(assert (= "x" (CharAt var16 695)))
(assert (= "f" (CharAt var22 687)))
(assert (= "6" (CharAt var6 123)))
(assert (= "b" (CharAt var56 400)))
(assert (= "l" (CharAt var13 754)))
(assert (= "B" (CharAt var17 125)))
(assert (= "t" (CharAt var56 29)))
(assert (= "s" (CharAt var44 52)))
(assert (= "3" (CharAt var32 454)))
(assert (= "(" (CharAt var8 80)))
(assert (= ";" (CharAt var13 571)))
(assert (= "." (CharAt var49 392)))
(assert (= "d" (CharAt var5 809)))
(assert (= "0" (CharAt var20 597)))
(assert (= "9" (CharAt var19 850)))
(assert (= "\\" (CharAt var23 553)))
(assert (= "B" (CharAt var34 238)))
(assert (= "E" (CharAt var31 755)))
(assert (= "!" (CharAt var57 986)))
(assert (= "r" (CharAt var45 975)))
(assert (= "U" (CharAt var16 877)))
(assert (= "k" (CharAt var41 26)))
(assert (= "'" (CharAt var24 539)))
(assert (= "u" (CharAt var4 125)))
(assert (= "L" (CharAt var51 958)))
(assert (= "8" (CharAt var60 984)))
(assert (= "W" (CharAt var43 522)))
(assert (= "-" (CharAt var58 227)))
(assert (= "2" (CharAt var60 836)))
(assert (= "D" (CharAt var57 361)))
(assert (= "8" (CharAt var2 538)))
(assert (= "m" (CharAt var5 334)))
(assert (= "g" (CharAt var54 365)))
(assert (= ";" (CharAt var26 581)))
(assert (= "C" (CharAt var2 928)))
(assert (= "," (CharAt var22 619)))
(assert (= "b" (CharAt var50 341)))
(assert (= "2" (CharAt var34 298)))
(assert (= "3" (CharAt var58 702)))
(assert (= "+" (CharAt var13 533)))
(assert (= "x" (CharAt var17 26)))
(assert (= "w" (CharAt var42 166)))
(assert (= "O" (CharAt var48 281)))
(assert (= "," (CharAt var25 720)))
(assert (= ":" (CharAt var10 966)))
(assert (= "I" (CharAt var60 980)))
(assert (= "v" (CharAt var21 848)))
(assert (= "U" (CharAt var20 262)))
(assert (= "U" (CharAt var2 553)))
(assert (= "i" (CharAt var28 194)))
(assert (= "0" (CharAt var5 386)))
(assert (= "L" (CharAt var54 628)))
(assert (= "A" (CharAt var22 450)))
(assert (= "X" (CharAt var38 715)))
(assert (= "T" (CharAt var43 891)))
(assert (= "b" (CharAt var53 986)))
(assert (= "e" (CharAt var46 558)))
(assert (= ")" (CharAt var26 424)))
(assert (= "u" (CharAt var8 461)))
(assert (= "^" (CharAt var18 696)))
(assert (= "B" (CharAt var31 896)))
(assert (= "~" (CharAt var14 626)))
(assert (= "(" (CharAt var51 428)))
(assert (= "#" (CharAt var13 265)))
(assert (= "]" (CharAt var49 692)))
(assert (= "2" (CharAt var34 866)))
(assert (= "B" (CharAt var39 450)))
(assert (= "Q" (CharAt var22 409)))
(assert (= "c" (CharAt var39 281)))
(assert (= "~" (CharAt var14 210)))
(assert (= "}" (CharAt var30 326)))
(assert (= "T" (CharAt var55 676)))
(assert (= "O" (CharAt var54 947)))
(assert (= "W" (CharAt var16 277)))
(assert (= "U" (CharAt var47 24)))
(assert (= "." (CharAt var37 78)))
(assert (= "f" (CharAt var15 956)))
(assert (= "V" (CharAt var49 414)))
(assert (= "H" (CharAt var37 164)))
(assert (= "#" (CharAt var0 794)))
(assert (= "Y" (CharAt var13 232)))
(assert (= "&" (CharAt var38 997)))
(assert (= "/" (CharAt var46 691)))
(assert (= "K" (CharAt var22 719)))
(assert (= "1" (CharAt var7 818)))
(assert (= "G" (CharAt var14 385)))
(assert (= "Q" (CharAt var27 559)))
(assert (= "q" (CharAt var60 80)))
(assert (= "7" (CharAt var47 896)))
(assert (= "M" (CharAt var21 808)))
(assert (= "6" (CharAt var38 900)))
(assert (= "P" (CharAt var14 720)))
(assert (= "`" (CharAt var44 181)))
(assert (= "D" (CharAt var29 521)))
(assert (= "K" (CharAt var39 827)))
(assert (= "<" (CharAt var33 611)))
(assert (= "[" (CharAt var26 516)))
(assert (= "]" (CharAt var11 991)))
(assert (= "_" (CharAt var20 298)))
(assert (= "]" (CharAt var14 343)))
(assert (= "0" (CharAt var16 225)))
(assert (= "w" (CharAt var42 812)))
(assert (= "2" (CharAt var30 908)))
(assert (= "a" (CharAt var49 236)))
(assert (= "s" (CharAt var9 205)))
(assert (= "C" (CharAt var6 194)))
(assert (= "1" (CharAt var26 778)))
(assert (= "d" (CharAt var11 986)))
(assert (= "3" (CharAt var29 441)))
(assert (= ":" (CharAt var36 719)))
(assert (= "g" (CharAt var6 482)))
(assert (= "Q" (CharAt var26 511)))
(assert (= "[" (CharAt var49 112)))
(assert (= "\"" (CharAt var17 542)))
(assert (= "g" (CharAt var43 7)))
(assert (= "P" (CharAt var28 852)))
(assert (= "Y" (CharAt var33 227)))
(assert (= "r" (CharAt var7 77)))
(assert (= "b" (CharAt var53 401)))
(assert (= "j" (CharAt var41 106)))
(assert (= "U" (CharAt var59 797)))
(assert (= "R" (CharAt var28 479)))
(assert (= "O" (CharAt var54 1)))
(assert (= "x" (CharAt var25 686)))
(assert (= "k" (CharAt var31 440)))
(assert (= "Q" (CharAt var30 913)))
(assert (= "^" (CharAt var8 415)))
(assert (= ">" (CharAt var3 892)))
(assert (= "o" (CharAt var58 723)))
(assert (= "s" (CharAt var55 843)))
(assert (= "H" (CharAt var24 765)))
(assert (= "&" (CharAt var23 706)))
(assert (= "g" (CharAt var56 874)))
(assert (= "7" (CharAt var15 714)))
(assert (= "u" (CharAt var1 537)))
(assert (= "o" (CharAt var38 308)))
(assert (= "G" (CharAt var6 939)))
(assert (= "R" (CharAt var7 858)))
(assert (= "{" (CharAt var9 662)))
(assert (= "n" (CharAt var9 6)))
(assert (= "C" (CharAt var1 479)))
(assert (= "P" (CharAt var46 637)))
(assert (= "!" (CharAt var8 73)))
(assert (= "{" (CharAt var1 137)))
(assert (= "$" (CharAt var14 84)))
(assert (= "&" (CharAt var59 605)))
(assert (= "M" (CharAt var59 46)))
(assert (= "&" (CharAt var37 274)))
(assert (= "I" (CharAt var2 730)))
(assert (= "7" (CharAt var4 73)))
(assert (= "Z" (CharAt var53 365)))
(assert (= "[" (CharAt var45 754)))
(assert (= "d" (CharAt var7 572)))
(assert (= "]" (CharAt var45 186)))
(assert (= "'" (CharAt var58 927)))
(assert (= "i" (CharAt var56 59)))
(assert (= "5" (CharAt var14 256)))
(assert (= "r" (CharAt var27 411)))
(assert (= "%" (CharAt var14 422)))
(assert (= "E" (CharAt var34 106)))
(assert (= "B" (CharAt var54 296)))
(assert (= "S" (CharAt var52 90)))
(assert (= "V" (CharAt var43 938)))
(assert (= "(" (CharAt var32 397)))
(assert (= "a" (CharAt var2 998)))
(assert (= "I" (CharAt var37 496)))
(assert (= "I" (CharAt var45 597)))
(assert (= "~" (CharAt var3 497)))
(assert (= "#" (CharAt var28 951)))
(assert (= "b" (CharAt var29 315)))
(assert (= "Q" (CharAt var23 15)))
(assert (= "B" (CharAt var48 969)))
(assert (= "^" (CharAt var9 219)))
(assert (= "," (CharAt var56 84)))
(assert (= "+" (CharAt var5 597)))
(assert (= "I" (CharAt var46 177)))
(assert (= "5" (CharAt var46 502)))
(assert (= "+" (CharAt var59 834)))
(assert (= "F" (CharAt var30 77)))
(assert (= "_" (CharAt var2 481)))
(assert (= "\"" (CharAt var28 415)))
(assert (= "f" (CharAt var58 13)))
(assert (= "C" (CharAt var4 214)))
(assert (= "?" (CharAt var28 55)))
(assert (= "J" (CharAt var44 259)))
(assert (= "[" (CharAt var53 316)))
(assert (= "!" (CharAt var37 335)))
(assert (= "U" (CharAt var48 814)))
(assert (= ">" (CharAt var39 369)))
(assert (= "z" (CharAt var26 550)))
(assert (= "T" (CharAt var22 712)))
(assert (= "w" (CharAt var0 38)))
(assert (= "7" (CharAt var44 285)))
(assert (= "z" (CharAt var35 882)))
(assert (= "{" (CharAt var59 74)))
(assert (= "6" (CharAt var27 129)))
(assert (= "e" (CharAt var30 499)))
(assert (= "K" (CharAt var42 110)))
(assert (= "X" (CharAt var27 638)))
(assert (= "f" (CharAt var2 419)))
(assert (= "/" (CharAt var25 348)))
(assert (= ")" (CharAt var42 649)))
(assert (= "^" (CharAt var4 164)))
(assert (= "n" (CharAt var37 246)))
(assert (= "L" (CharAt var28 491)))
(assert (= ">" (CharAt var20 494)))
(assert (= "!" (CharAt var25 470)))
(assert (= "k" (CharAt var12 441)))
(assert (= "{" (CharAt var59 802)))
(assert (= "`" (CharAt var48 534)))
(assert (= "b" (CharAt var0 992)))
(assert (= "X" (CharAt var1 541)))
(assert (= "q" (CharAt var38 384)))
(assert (= "b" (CharAt var28 528)))
(assert (= "&" (CharAt var59 975)))
(assert (= "[" (CharAt var51 315)))
(assert (= "3" (CharAt var7 738)))
(assert (= "?" (CharAt var30 69)))
(assert (= "`" (CharAt var6 244)))
(assert (= "4" (CharAt var26 38)))
(assert (= "P" (CharAt var14 32)))
(assert (= "f" (CharAt var22 633)))
(assert (= "R" (CharAt var57 563)))
(assert (= "4" (CharAt var36 790)))
(assert (= "}" (CharAt var59 787)))
(assert (= "C" (CharAt var60 20)))
(assert (= "#" (CharAt var54 58)))
(assert (= "$" (CharAt var28 662)))
(assert (= "v" (CharAt var35 30)))
(assert (= "6" (CharAt var59 664)))
(assert (= "a" (CharAt var11 329)))
(assert (= ";" (CharAt var11 524)))
(assert (= "w" (CharAt var45 235)))
(assert (= "z" (CharAt var55 330)))
(assert (= ";" (CharAt var30 137)))
(assert (= ":" (CharAt var31 456)))
(assert (= "V" (CharAt var38 100)))
(assert (= "o" (CharAt var12 581)))
(assert (= "L" (CharAt var58 699)))
(assert (= "'" (CharAt var26 679)))
(assert (= "|" (CharAt var10 968)))
(assert (= ">" (CharAt var13 618)))
(assert (= "U" (CharAt var16 490)))
(assert (= "k" (CharAt var51 42)))
(assert (= "G" (CharAt var29 914)))
(assert (= "~" (CharAt var3 212)))
(assert (= "'" (CharAt var57 180)))
(assert (= "F" (CharAt var24 314)))
(assert (= "V" (CharAt var26 673)))
(assert (= "H" (CharAt var37 219)))
(assert (= "2" (CharAt var38 530)))
(assert (= "\"" (CharAt var26 859)))
(assert (= "Z" (CharAt var48 867)))
(assert (= "u" (CharAt var46 493)))
(assert (= "~" (CharAt var4 480)))
(assert (= "D" (CharAt var56 481)))
(assert (= "V" (CharAt var53 706)))
(assert (= "'" (CharAt var49 228)))
(assert (= "t" (CharAt var4 423)))
(assert (= "R" (CharAt var27 637)))
(check-sat)
(get-model)